c book.min
c
p min 7 24
c
n 1 10
n 6 5
n 7 -15
c
a 1 2 0 15 0
a 2 1 0 15 0
c
a 1 3 0 15 0
a 3 1 0 15 0
c
a 2 3 0 15 1
a 3 2 0 15 1
c
a 2 4 0 15 1
a 4 2 0 15 1
c
a 2 7 0 15 1
a 7 2 0 15 1
c
a 3 5 0 15 1
a 5 3 0 15 1
c
a 3 7 0 15 1
a 7 3 0 15 1
c
a 4 5 0 15 1
a 5 4 0 15 1
c
a 4 6 0 15 0
a 6 4 0 15 0
c
a 4 7 0 15 1
a 7 4 0 15 1
c
a 5 6 0 15 0
a 6 5 0 15 0
c
a 5 7 0 15 1
a 7 5 0 15 1
c
c eof
